RT is False
Default write of storage_offers_DA.csv just to have a file (but constraint should be inactive)
Reading model...
...model read.
creating competitive generators file...
...competitive generators recorded.
Loading data...
.. day-ahead data with real-time VRE data read.
Compiling instance...
...instance created.
Creating Offer Mitigation (model will solve as dispatch if TRUE)...
NOTE: storage offers will not be mitigated
...storage offer mitigation file created
Converting model to MPEC...
...converted
NOTE: initial MIP solve with only storage competitive to get feasible solution
Solving...

Welcome to IBM(R) ILOG(R) CPLEX(R) Interactive Optimizer 12.9.0.0
  with Simplex, Mixed Integer & Barrier Optimizers
5725-A06 5725-A29 5724-Y48 5724-Y49 5724-Y54 5724-Y55 5655-Y21
Copyright IBM Corp. 1988, 2019.  All Rights Reserved.

Type 'help' for a list of available commands.
Type 'help' followed by a command name for more
information on commands.

CPLEX> Logfile 'cplex.log' closed.
Logfile 'C:\Users\llavin\Desktop\test826\logs\tmpweovizdx.cplex.log' open.
CPLEX> New value for parallel optimization mode: -1
CPLEX> New value for emphasis for MIP optimization: 1
CPLEX> New value for mixed integer optimality gap tolerance: 0.01
CPLEX> New value for integrality tolerance: 1e-12
CPLEX> New value for deterministic time limit in ticks: 75000
CPLEX> Problem 'C:\Users\llavin\Desktop\test826\logs\tmp_4ptw_7i.pyomo.lp' read.
Read time = 0.23 sec. (13.92 ticks)
CPLEX> Problem name         : C:\Users\llavin\Desktop\test826\logs\tmp_4ptw_7i.pyomo.lp
Objective sense      : Maximize
Variables            :   53809  [Nneg: 1,  Box: 22004,  Free: 4464,
                                 Binary: 27340]
Objective nonzeros   :    8980
Linear constraints   :  123253  [Less: 41346,  Greater: 59096,  Equal: 22811]
  Nonzeros           :  293289
  RHS nonzeros       :   67491

Variables            : Min LB: -5000.000        Max UB: 1000000.       
Objective nonzeros   : Min   : 0.4000000        Max   : 778.4500       
Linear constraints   :
  Nonzeros           : Min   : 0.4000000        Max   : 1000000.       
  RHS nonzeros       : Min   : 0.4000000        Max   : 1000000.       
CPLEX> CPXPARAM_Parallel                                -1
CPXPARAM_Emphasis_MIP                            1
CPXPARAM_DetTimeLimit                            75000
CPXPARAM_MIP_Tolerances_MIPGap                   0.01
CPXPARAM_MIP_Tolerances_Integrality              9.9999999999999998e-13
Tried aggregator 4 times.
MIP Presolve eliminated 88707 rows and 18963 columns.
MIP Presolve added 3401 rows and 0 columns.
MIP Presolve modified 24856 coefficients.
Aggregator did 12998 substitutions.
Reduced MIP has 24949 rows, 21292 columns, and 71190 nonzeros.
Reduced MIP has 8407 binaries, 0 generals, 0 SOSs, and 0 indicators.
Presolve time = 0.31 sec. (193.78 ticks)
Probing fixed 398 vars, tightened 4359 bounds.
Probing time = 0.08 sec. (19.01 ticks)
Tried aggregator 2 times.
MIP Presolve eliminated 900 rows and 802 columns.
MIP Presolve modified 3036 coefficients.
Aggregator did 35 substitutions.
Reduced MIP has 24014 rows, 20455 columns, and 68473 nonzeros.
Reduced MIP has 8007 binaries, 0 generals, 0 SOSs, and 0 indicators.
Presolve time = 0.11 sec. (89.46 ticks)
Probing fixed 0 vars, tightened 281 bounds.
Probing time = 0.14 sec. (22.78 ticks)
Clique table members: 44404.
MIP emphasis: integer feasibility.
MIP search method: dynamic search.
Parallel mode: opportunistic, using up to 32 threads.
Root relaxation solution time = 0.42 sec. (639.58 ticks)

        Nodes                                         Cuts/
   Node  Left     Objective  IInf  Best Integer    Best Bound    ItCnt     Gap

      0     0     7907.0394   118                   7907.0394     5879         
*     0+    0                         7907.0394     7907.0394             0.00%
      0     0        cutoff           7907.0394     7907.0394     5879    0.00%
Elapsed time = 1.63 sec. (1351.73 ticks, tree = 0.01 MB, solutions = 1)

Root node processing (before b&c):
  Real time             =    1.63 sec. (1353.67 ticks)
Parallel b&c, 32 threads:
  Real time             =    0.00 sec. (0.00 ticks)
  Sync time (average)   =    0.00 sec.
  Wait time (average)   =    0.00 sec.
                          ------------
Total (root+branch&cut) =    1.63 sec. (1353.67 ticks)

Solution pool: 1 solution saved.

MIP - Integer optimal solution:  Objective =  7.9070393800e+03
Solution time =    1.64 sec.  Iterations = 5879  Nodes = 0
Deterministic time = 1353.83 ticks  (825.00 ticks/sec)

CPLEX> Incumbent solution written to file 'C:\Users\llavin\Desktop\test826\logs\tmp16culqgr.cplex.sol'.
CPLEX> NOTE: no warmstart specified for MIP iteration, default behavior is true
NOTE: resolving with all competitive generators using storage-only solution to warmstart
Solving...

Welcome to IBM(R) ILOG(R) CPLEX(R) Interactive Optimizer 12.9.0.0
  with Simplex, Mixed Integer & Barrier Optimizers
5725-A06 5725-A29 5724-Y48 5724-Y49 5724-Y54 5724-Y55 5655-Y21
Copyright IBM Corp. 1988, 2019.  All Rights Reserved.

Type 'help' for a list of available commands.
Type 'help' followed by a command name for more
information on commands.

CPLEX> Logfile 'cplex.log' closed.
Logfile 'C:\Users\llavin\Desktop\test826\logs\tmp_s70bxt6.cplex.log' open.
CPLEX> New value for parallel optimization mode: -1
CPLEX> New value for emphasis for MIP optimization: 1
CPLEX> New value for mixed integer optimality gap tolerance: 0.01
CPLEX> New value for integrality tolerance: 1e-12
CPLEX> New value for deterministic time limit in ticks: 75000
CPLEX> Problem 'C:\Users\llavin\Desktop\test826\logs\tmpk_a48oim.pyomo.lp' read.
Read time = 0.22 sec. (13.94 ticks)
CPLEX> MIP start file 'C:\Users\llavin\Desktop\test826\logs\tmp0fc86i3r.cplex.mst' read.
CPLEX> Problem name         : C:\Users\llavin\Desktop\test826\logs\tmpk_a48oim.pyomo.lp
Objective sense      : Maximize
Variables            :   54529  [Nneg: 1,  Box: 22724,  Free: 4464,
                                 Binary: 27340]
Objective nonzeros   :    9676
Linear constraints   :  123253  [Less: 41346,  Greater: 59096,  Equal: 22811]
  Nonzeros           :  293289
  RHS nonzeros       :   67491

Variables            : Min LB: -5000.000        Max UB: 1000000.       
Objective nonzeros   : Min   : 0.4000000        Max   : 778.4500       
Linear constraints   :
  Nonzeros           : Min   : 0.4000000        Max   : 1000000.       
  RHS nonzeros       : Min   : 0.4000000        Max   : 1000000.       
CPLEX> CPXPARAM_Parallel                                -1
CPXPARAM_Emphasis_MIP                            1
CPXPARAM_DetTimeLimit                            75000
CPXPARAM_MIP_Tolerances_MIPGap                   0.01
CPXPARAM_MIP_Tolerances_Integrality              9.9999999999999998e-13
Warning:  No solution found from 1 MIP starts.
Retaining values of one MIP start for possible repair.
Tried aggregator 4 times.
MIP Presolve eliminated 88707 rows and 19683 columns.
MIP Presolve added 3401 rows and 0 columns.
MIP Presolve modified 24856 coefficients.
Aggregator did 12998 substitutions.
Reduced MIP has 24949 rows, 21292 columns, and 71190 nonzeros.
Reduced MIP has 8407 binaries, 0 generals, 0 SOSs, and 0 indicators.
Presolve time = 0.31 sec. (194.19 ticks)
Probing fixed 398 vars, tightened 4359 bounds.
Probing time = 0.06 sec. (19.01 ticks)
Tried aggregator 2 times.
MIP Presolve eliminated 900 rows and 802 columns.
MIP Presolve modified 3036 coefficients.
Aggregator did 35 substitutions.
Reduced MIP has 24014 rows, 20455 columns, and 68473 nonzeros.
Reduced MIP has 8007 binaries, 0 generals, 0 SOSs, and 0 indicators.
Presolve time = 0.11 sec. (89.46 ticks)
Probing fixed 0 vars, tightened 281 bounds.
Probing time = 0.13 sec. (22.78 ticks)
Clique table members: 44404.
MIP emphasis: integer feasibility.
MIP search method: dynamic search.
Parallel mode: opportunistic, using up to 32 threads.
Root relaxation solution time = 0.44 sec. (657.20 ticks)

        Nodes                                         Cuts/
   Node  Left     Objective  IInf  Best Integer    Best Bound    ItCnt     Gap

      0     0    54042.3674   196                  54042.3674     6152         
      0     0    53318.6650    66                    Cuts: 60     6208         
      0     0    53207.2750    67                    Cuts: 13     6220         
      0     0    53202.1491    67                     Cuts: 6     6223         
Repair heuristic found nothing.
      0    17    49126.8098    59                    Cuts: 12     6334         
Elapsed time = 4.39 sec. (1924.98 ticks, tree = 0.02 MB, solutions = 0)
    629   430    20628.9001    33                  52114.4280    12610         
   1133   760    11747.3742    50                  52114.4280    16356         
*  1737+  820                        25846.4816    52114.4280           101.63%
   2333   795    27773.6477    33    25846.4816    49353.3001    29320   90.95%
   3082  1115    31331.4315    18    25846.4816    42802.3587    37406   65.60%
   3907  1290    30166.4016    47    25846.4816    42802.3587    39132   65.60%
   4703  1792    29527.4099    27    25846.4816    42802.3587    44626   65.60%
   5611  2468    25851.3462    13    25846.4816    42802.3587    52603   65.60%
   6532  2842    25848.3826    13    25846.4816    42775.7712    55747   65.50%
   8311  3817        cutoff          25846.4816    42775.7712    77989   65.50%
Elapsed time = 22.83 sec. (7209.30 ticks, tree = 35.63 MB, solutions = 3)
   9989   676        cutoff          25846.4816    42775.7712    89904   65.50%
  12350  1121        cutoff          25846.4816    42775.7712   103540   65.50%
  15735  1274        cutoff          25846.4816    42775.7712   109752   65.50%
  18873  1604    26141.6172    11    25846.4816    42775.7712   133858   65.50%
  21807  1386        cutoff          25846.4816    38913.6395   164496   50.56%
  22489  1357    27468.1488    36    25846.4816    36600.5640   179542   41.61%
  23762  1363    25851.6110    17    25846.4816    33495.3488   181754   29.59%
  24530  1364    25850.3909     5    25846.4816    33495.3488   185662   29.59%

GUB cover cuts applied:  3
Cover cuts applied:  11
Implied bound cuts applied:  18
Flow cuts applied:  42
Mixed integer rounding cuts applied:  3
Gomory fractional cuts applied:  7

Root node processing (before b&c):
  Real time             =    2.77 sec. (1887.23 ticks)
Parallel b&c, 32 threads:
  Real time             =   47.25 sec. (13494.71 ticks)
  Sync time (average)   =    2.90 sec.
  Wait time (average)   =    0.23 sec.
                          ------------
Total (root+branch&cut) =   50.02 sec. (15381.93 ticks)

Solution pool: 3 solutions saved.

MIP - Integer optimal, tolerance (0.01/1e-06):  Objective =  2.5846481612e+04
Current MIP best bound =  2.6103586103e+04 (gap = 257.104, 0.99%)
Solution time =   50.05 sec.  Iterations = 191790  Nodes = 24683 (1540)
Deterministic time = 15382.09 ticks  (307.35 ticks/sec)

CPLEX> Incumbent solution written to file 'C:\Users\llavin\Desktop\test826\logs\tmpk0yo5z9l.cplex.sol'.
CPLEX> Exporting results... 
